39483 40091 
39904 39777 
39695 39900 
39684 40067 
40123 39762 
38209 40591 
39359 40143 
39797 39891 
39380 40114 
38600 40506 
38410 40567 
39147 40304 
38973 40457 
38633 40478 
38443 40539 
39059 40316 
39311 40260 
39332 40231 
39821 39796 
